% demand
num_movements = 24;
loading_factor = [1650, 1600, 800, 1950, 1000, 1600, 1200, 1200, 1300, 900, 1200, 1150, 1250, 1300, 1750, 1450, 1200, 1150, 1850, 1550, 1600, 1350, 1300, 1100];
pickup_time = [0, 0, 0, 0, 0, 1, 2, 3, 3, 3, 3, 3, 3, 4, 5, 5, 8, 9, 9, 10, 10, 10, 10, 12];
delivery_time = [3, 1, 3, 1, 3, 3, 3, 5, 4, 8, 5, 9, 5, 7, 9, 8, 9, 12, 10, 14, 14, 13, 12, 14];

% transporter definition
total_capacity = 7000;
num_decks = 3;
capacity = [3000, 1000, 3000];

% ways out of decks
num_ways_out = 1;
paths_out = array3d(decks, ways_out, decks, [
% ways out of deck d1
2, 3, 0, 

% ways out of deck d2
3, 0, 0, 

% ways out of deck d3
0, 0, 0,	

]);

